problems/csplib-prob015/SchursLemma-models/noch/O2/lingeling/model_1_3-5-16-solution000001.eprime-solution
language ESSENCE' 1.0

letting boxes_PartitionAsSet_ExplicitR5_ExplicitVarSizeWithMarker_Marker be [1, 3, 3, 4, 5; int(1..5)]
letting boxes_PartitionAsSet_ExplicitR5_ExplicitVarSizeWithMarker_Values be
        [[6, 1, 1, 1, 1, 1, 1, 1, 1, 1, 1, 1, 1, 1, 1, 1; int(1..16)],
         [7, 8, 9, 1, 1, 1, 1, 1, 1, 1, 1, 1, 1, 1, 1, 1; int(1..16)],
         [11, 14, 15, 1, 1, 1, 1, 1, 1, 1, 1, 1, 1, 1, 1, 1; int(1..16)],
         [2, 4, 10, 13, 1, 1, 1, 1, 1, 1, 1, 1, 1, 1, 1, 1; int(1..16)],
         [1, 3, 5, 12, 16, 1, 1, 1, 1, 1, 1, 1, 1, 1, 1, 1; int(1..16)]; int(1..5)]
