problems/csplib-prob015/SchursLemma-models/noch/O2/lingeling/model_1_3-5-16-solution000001.solution
language Essence 1.3

letting boxes be partition({1, 3, 5, 12, 16}, {2, 4, 10, 13}, {6}, {7, 8, 9}, {11, 14, 15})
